100 59934

 966 117
406 482
978 392
456 917
743 994
800 964
161 537
784 79
460 580
550 173
500 956
738 12
509 800
654 128
804 608
481 92
663 653
114 543
749 846
578 532
361 658
341 989
770 828
987 447
761 390
969 672
449 861
843 43
835 254
180 130
702 60
407 663
666 467
196 287
466 517
311 467
262 930
419 778
406 345
939 642
143 382
342 779
316 690
101 253
244 927
490 56
12 463
239 457
561 983
42 83
678 905
594 99
429 149
803 329
158 156
216 190
670 494
462 883
134 263
67 80
848 400
7 764
948 609
526 260
73 772
399 615
405 552
675 785
578 101
859 359
130 380
931 820
466 221
206 820
788 420
978 124
768 422
266 231
537 690
962 63
793 485
253 628
822 703
289 574
164 768
95 483
782 519
833 155
110 92
336 982
822 526
238 455
381 741
436 598
899 645
483 510
937 183
902 386
25 574
653 731
